p cnf 1062
-20 -328
-21 -331
-22 -334
-23 -337
-24 -340
-25 -343
-26 -346
-27 -349
-28 -352
-29 -355
-30 -358
-31 -361
-32 -364
-33 -367
-34 -370
-35 -373
-36 -376
-37 -379
-38 -382
-39 383
-40 384
-41 385
-42 386
-43 -21
-43 -22
21 22 43
-44 -23
-44 -24
23 24 44
-45 -25
-45 -26
25 26 45
-46 -27
-46 -28
27 28 46
-47 -29
-47 -30
29 30 47
-48 -31
-48 -32
31 32 48
-49 -33
-49 -34
33 34 49
-50 -35
-50 -36
35 36 50
-51 -37
-51 -38
37 38 51
-52 -39
-52 -40
39 40 52
-53 -41
-53 -42
41 42 53
-54 43
-54 44
-43 -44 54
-55 45
-55 46
-45 -46 55
-56 47
-56 48
-47 -48 56
-57 49
-57 50
-49 -50 57
-58 51
-58 52
-51 -52 58
-59 54
-59 55
-54 -55 59
-60 56
-60 57
-56 -57 60
-61 53
-61 58
-53 -58 61
-62 59
-62 60
-59 -60 62
-63 61
-63 62
-61 -62 63
-64 -20
-64 21
20 -21 64
-65 20
-65 -21
-20 21 65
-66 -64
-66 -65
64 65 66
-67 20
-67 21
-20 -21 67
-68 -20
-68 -66
20 66 68
-69 20
-69 66
-20 -66 69
-70 -68
-70 -69
68 69 70
-71 20
-71 -66
-20 66 71
-72 -67
-72 -71
67 71 72
-73 -21
-73 22
21 -22 73
-74 21
-74 -22
-21 22 74
-75 -73
-75 -74
73 74 75
-76 21
-76 22
-21 -22 76
-77 72
-77 -75
-72 75 77
-78 -72
-78 75
72 -75 78
-79 -77
-79 -78
77 78 79
-80 -72
-80 -75
72 75 80
-81 -76
-81 -80
76 80 81
-82 -22
-82 23
22 -23 82
-83 22
-83 -23
-22 23 83
-84 -82
-84 -83
82 83 84
-85 22
-85 23
-22 -23 85
-86 81
-86 -84
-81 84 86
-87 -81
-87 84
81 -84 87
-88 -86
-88 -87
86 87 88
-89 -81
-89 -84
81 84 89
-90 -85
-90 -89
85 89 90
-91 -23
-91 24
23 -24 91
-92 23
-92 -24
-23 24 92
-93 -91
-93 -92
91 92 93
-94 23
-94 24
-23 -24 94
-95 90
-95 -93
-90 93 95
-96 -90
-96 93
90 -93 96
-97 -95
-97 -96
95 96 97
-98 -90
-98 -93
90 93 98
-99 -94
-99 -98
94 98 99
-100 -24
-100 25
24 -25 100
-101 24
-101 -25
-24 25 101
-102 -100
-102 -101
100 101 102
-103 24
-103 25
-24 -25 103
-104 99
-104 -102
-99 102 104
-105 -99
-105 102
99 -102 105
-106 -104
-106 -105
104 105 106
-107 -99
-107 -102
99 102 107
-108 -103
-108 -107
103 107 108
-109 -25
-109 26
25 -26 109
-110 25
-110 -26
-25 26 110
-111 -109
-111 -110
109 110 111
-112 25
-112 26
-25 -26 112
-113 108
-113 -111
-108 111 113
-114 -108
-114 111
108 -111 114
-115 -113
-115 -114
113 114 115
-116 -108
-116 -111
108 111 116
-117 -112
-117 -116
112 116 117
-118 -26
-118 27
26 -27 118
-119 26
-119 -27
-26 27 119
-120 -118
-120 -119
118 119 120
-121 26
-121 27
-26 -27 121
-122 117
-122 -120
-117 120 122
-123 -117
-123 120
117 -120 123
-124 -122
-124 -123
122 123 124
-125 -117
-125 -120
117 120 125
-126 -121
-126 -125
121 125 126
-127 -27
-127 28
27 -28 127
-128 27
-128 -28
-27 28 128
-129 -127
-129 -128
127 128 129
-130 27
-130 28
-27 -28 130
-131 126
-131 -129
-126 129 131
-132 -126
-132 129
126 -129 132
-133 -131
-133 -132
131 132 133
-134 -126
-134 -129
126 129 134
-135 -130
-135 -134
130 134 135
-136 -28
-136 29
28 -29 136
-137 28
-137 -29
-28 29 137
-138 -136
-138 -137
136 137 138
-139 28
-139 29
-28 -29 139
-140 135
-140 -138
-135 138 140
-141 -135
-141 138
135 -138 141
-142 -140
-142 -141
140 141 142
-143 -135
-143 -138
135 138 143
-144 -139
-144 -143
139 143 144
-145 -29
-145 30
29 -30 145
-146 29
-146 -30
-29 30 146
-147 -145
-147 -146
145 146 147
-148 29
-148 30
-29 -30 148
-149 144
-149 -147
-144 147 149
-150 -144
-150 147
144 -147 150
-151 -149
-151 -150
149 150 151
-152 -144
-152 -147
144 147 152
-153 -148
-153 -152
148 152 153
-154 -30
-154 31
30 -31 154
-155 30
-155 -31
-30 31 155
-156 -154
-156 -155
154 155 156
-157 30
-157 31
-30 -31 157
-158 153
-158 -156
-153 156 158
-159 -153
-159 156
153 -156 159
-160 -158
-160 -159
158 159 160
-161 -153
-161 -156
153 156 161
-162 -157
-162 -161
157 161 162
-163 -31
-163 32
31 -32 163
-164 31
-164 -32
-31 32 164
-165 -163
-165 -164
163 164 165
-166 31
-166 32
-31 -32 166
-167 162
-167 -165
-162 165 167
-168 -162
-168 165
162 -165 168
-169 -167
-169 -168
167 168 169
-170 -162
-170 -165
162 165 170
-171 -166
-171 -170
166 170 171
-172 -32
-172 33
32 -33 172
-173 32
-173 -33
-32 33 173
-174 -172
-174 -173
172 173 174
-175 32
-175 33
-32 -33 175
-176 171
-176 -174
-171 174 176
-177 -171
-177 174
171 -174 177
-178 -176
-178 -177
176 177 178
-179 -171
-179 -174
171 174 179
-180 -175
-180 -179
175 179 180
-181 -33
-181 34
33 -34 181
-182 33
-182 -34
-33 34 182
-183 -181
-183 -182
181 182 183
-184 33
-184 34
-33 -34 184
-185 180
-185 -183
-180 183 185
-186 -180
-186 183
180 -183 186
-187 -185
-187 -186
185 186 187
-188 -180
-188 -183
180 183 188
-189 -184
-189 -188
184 188 189
-190 -34
-190 35
34 -35 190
-191 34
-191 -35
-34 35 191
-192 -190
-192 -191
190 191 192
-193 34
-193 35
-34 -35 193
-194 189
-194 -192
-189 192 194
-195 -189
-195 192
189 -192 195
-196 -194
-196 -195
194 195 196
-197 -189
-197 -192
189 192 197
-198 -193
-198 -197
193 197 198
-199 -35
-199 36
35 -36 199
-200 35
-200 -36
-35 36 200
-201 -199
-201 -200
199 200 201
-202 35
-202 36
-35 -36 202
-203 198
-203 -201
-198 201 203
-204 -198
-204 201
198 -201 204
-205 -203
-205 -204
203 204 205
-206 -198
-206 -201
198 201 206
-207 -202
-207 -206
202 206 207
-208 -36
-208 37
36 -37 208
-209 36
-209 -37
-36 37 209
-210 -208
-210 -209
208 209 210
-211 36
-211 37
-36 -37 211
-212 207
-212 -210
-207 210 212
-213 -207
-213 210
207 -210 213
-214 -212
-214 -213
212 213 214
-215 -207
-215 -210
207 210 215
-216 -211
-216 -215
211 215 216
-217 -37
-217 38
37 -38 217
-218 37
-218 -38
-37 38 218
-219 -217
-219 -218
217 218 219
-220 37
-220 38
-37 -38 220
-221 216
-221 -219
-216 219 221
-222 -216
-222 219
216 -219 222
-223 -221
-223 -222
221 222 223
-224 -216
-224 -219
216 219 224
-225 -220
-225 -224
220 224 225
-226 -38
-226 39
38 -39 226
-227 38
-227 -39
-38 39 227
-228 -226
-228 -227
226 227 228
-229 38
-229 39
-38 -39 229
-230 225
-230 -228
-225 228 230
-231 -225
-231 228
225 -228 231
-232 -230
-232 -231
230 231 232
-233 -225
-233 -228
225 228 233
-234 -229
-234 -233
229 233 234
-235 -39
-235 40
39 -40 235
-236 39
-236 -40
-39 40 236
-237 -235
-237 -236
235 236 237
-238 39
-238 40
-39 -40 238
-239 234
-239 -237
-234 237 239
-240 -234
-240 237
234 -237 240
-241 -239
-241 -240
239 240 241
-242 -234
-242 -237
234 237 242
-243 -238
-243 -242
238 242 243
-244 -40
-244 41
40 -41 244
-245 40
-245 -41
-40 41 245
-246 -244
-246 -245
244 245 246
-247 40
-247 41
-40 -41 247
-248 243
-248 -246
-243 246 248
-249 -243
-249 246
243 -246 249
-250 -248
-250 -249
248 249 250
-251 -243
-251 -246
243 246 251
-252 -247
-252 -251
247 251 252
-253 -41
-253 42
41 -42 253
-254 41
-254 -42
-41 42 254
-255 -253
-255 -254
253 254 255
-256 41
-256 42
-41 -42 256
-257 252
-257 -255
-252 255 257
-258 -252
-258 255
252 -255 258
-259 -257
-259 -258
257 258 259
-260 -252
-260 -255
252 255 260
-261 -256
-261 -260
256 260 261
-262 20
-262 -70
-20 70 262
-263 -20
-263 22
20 -22 263
-264 -262
-264 -263
262 263 264
-265 20
-265 -79
-20 79 265
-266 -20
-266 23
20 -23 266
-267 -265
-267 -266
265 266 267
-268 20
-268 -88
-20 88 268
-269 -20
-269 24
20 -24 269
-270 -268
-270 -269
268 269 270
-271 20
-271 -97
-20 97 271
-272 -20
-272 25
20 -25 272
-273 -271
-273 -272
271 272 273
-274 20
-274 -106
-20 106 274
-275 -20
-275 26
20 -26 275
-276 -274
-276 -275
274 275 276
-277 20
-277 -115
-20 115 277
-278 -20
-278 27
20 -27 278
-279 -277
-279 -278
277 278 279
-280 20
-280 -124
-20 124 280
-281 -20
-281 28
20 -28 281
-282 -280
-282 -281
280 281 282
-283 20
-283 -133
-20 133 283
-284 -20
-284 29
20 -29 284
-285 -283
-285 -284
283 284 285
-286 20
-286 -142
-20 142 286
-287 -20
-287 30
20 -30 287
-288 -286
-288 -287
286 287 288
-289 20
-289 -151
-20 151 289
-290 -20
-290 31
20 -31 290
-291 -289
-291 -290
289 290 291
-292 20
-292 -160
-20 160 292
-293 -20
-293 32
20 -32 293
-294 -292
-294 -293
292 293 294
-295 20
-295 -169
-20 169 295
-296 -20
-296 33
20 -33 296
-297 -295
-297 -296
295 296 297
-298 20
-298 -178
-20 178 298
-299 -20
-299 34
20 -34 299
-300 -298
-300 -299
298 299 300
-301 20
-301 -187
-20 187 301
-302 -20
-302 35
20 -35 302
-303 -301
-303 -302
301 302 303
-304 20
-304 -196
-20 196 304
-305 -20
-305 36
20 -36 305
-306 -304
-306 -305
304 305 306
-307 20
-307 -205
-20 205 307
-308 -20
-308 37
20 -37 308
-309 -307
-309 -308
307 308 309
-310 20
-310 -214
-20 214 310
-311 -20
-311 38
20 -38 311
-312 -310
-312 -311
310 311 312
-313 20
-313 -223
-20 223 313
-314 -20
-314 39
20 -39 314
-315 -313
-315 -314
313 314 315
-316 20
-316 -232
-20 232 316
-317 -20
-317 40
20 -40 317
-318 -316
-318 -317
316 317 318
-319 20
-319 -241
-20 241 319
-320 -20
-320 41
20 -41 320
-321 -319
-321 -320
319 320 321
-322 20
-322 -250
-20 250 322
-323 -20
-323 42
20 -42 323
-324 -322
-324 -323
322 323 324
-325 20
-325 -259
-20 259 325
-326 1
-326 63
-1 -63 326
-327 -63
-327 64
63 -64 327
-328 -326
-328 -327
326 327 328
-329 2
-329 63
-2 -63 329
-330 -63
-330 -264
63 264 330
-331 -329
-331 -330
329 330 331
-332 3
-332 63
-3 -63 332
-333 -63
-333 -267
63 267 333
-334 -332
-334 -333
332 333 334
-335 4
-335 63
-4 -63 335
-336 -63
-336 -270
63 270 336
-337 -335
-337 -336
335 336 337
-338 5
-338 63
-5 -63 338
-339 -63
-339 -273
63 273 339
-340 -338
-340 -339
338 339 340
-341 6
-341 63
-6 -63 341
-342 -63
-342 -276
63 276 342
-343 -341
-343 -342
341 342 343
-344 7
-344 63
-7 -63 344
-345 -63
-345 -279
63 279 345
-346 -344
-346 -345
344 345 346
-347 8
-347 63
-8 -63 347
-348 -63
-348 -282
63 282 348
-349 -347
-349 -348
347 348 349
-350 9
-350 63
-9 -63 350
-351 -63
-351 -285
63 285 351
-352 -350
-352 -351
350 351 352
-353 10
-353 63
-10 -63 353
-354 -63
-354 -288
63 288 354
-355 -353
-355 -354
353 354 355
-356 11
-356 63
-11 -63 356
-357 -63
-357 -291
63 291 357
-358 -356
-358 -357
356 357 358
-359 12
-359 63
-12 -63 359
-360 -63
-360 -294
63 294 360
-361 -359
-361 -360
359 360 361
-362 13
-362 63
-13 -63 362
-363 -63
-363 -297
63 297 363
-364 -362
-364 -363
362 363 364
-365 14
-365 63
-14 -63 365
-366 -63
-366 -300
63 300 366
-367 -365
-367 -366
365 366 367
-368 15
-368 63
-15 -63 368
-369 -63
-369 -303
63 303 369
-370 -368
-370 -369
368 369 370
-371 16
-371 63
-16 -63 371
-372 -63
-372 -306
63 306 372
-373 -371
-373 -372
371 372 373
-374 17
-374 63
-17 -63 374
-375 -63
-375 -309
63 309 375
-376 -374
-376 -375
374 375 376
-377 18
-377 63
-18 -63 377
-378 -63
-378 -312
63 312 378
-379 -377
-379 -378
377 378 379
-380 19
-380 63
-19 -63 380
-381 -63
-381 -315
63 315 381
-382 -380
-382 -381
380 381 382
-383 -63
-383 -318
63 318 383
-384 -63
-384 -321
63 321 384
-385 -63
-385 -324
63 324 385
-386 -63
-386 325
63 -325 386
-387 -42
-387 261
42 -261 387
-388 20
-388 -387
-20 387 388
388
